SDVRP instances/custom_instances/p01_23_split0.vrp
NAME:p01_23_split
BEST_KNOWN: 0
COMMENT: 0
DIMENSION: 211
CAPACITY: 160
EDGE_WEIGHT_FORMAT: FUNCTION
EDGE_WEIGHT_TYPE: EXACT_2D
NODE_COORD_SECTION
1 0.00000 0.00000
2 -41 -37
3 -41 -37
4 -41 -37
5 -41 -37
6 -41 -37
7 -43 9
8 -43 9
9 -43 9
10 -43 9
11 -43 9
12 10 23
13 10 23
14 10 23
15 10 23
16 10 23
17 10 23
18 23 -33
19 23 -33
20 23 -33
21 23 -33
22 23 -33
23 13 -50
24 13 -50
25 13 -50
26 13 -50
27 13 -50
28 13 -50
29 -39 -25
30 -39 -25
31 -39 -25
32 -39 -25
33 25 29
34 25 29
35 25 29
36 25 29
37 3 1
38 3 1
39 3 1
40 3 1
41 -23 41
42 -23 41
43 -23 41
44 -23 41
45 -23 41
46 -43 13
47 -43 13
48 -43 13
49 -43 13
50 -43 13
51 -43 13
52 46 32
53 46 32
54 46 32
55 46 32
56 46 32
57 46 32
58 44 -44
59 44 -44
60 44 -44
61 44 -44
62 -7 -14
63 -7 -14
64 -7 -14
65 -7 -14
66 45 8
67 45 8
68 -22 -44
69 -22 -44
70 -35 37
71 -35 37
72 -35 37
73 -35 37
74 -35 37
75 -35 37
76 28 -30
77 28 -30
78 28 -30
79 28 -30
80 -34 34
81 -34 34
82 -34 34
83 35 -39
84 35 -39
85 35 -39
86 -3 26
87 -3 26
88 -3 26
89 -3 26
90 43 -20
91 43 -20
92 43 -20
93 45 -34
94 45 -34
95 44 -44
96 44 -44
97 44 -44
98 -33 -11
99 -33 -11
100 -33 -11
101 -33 -11
102 -33 -11
103 -33 -11
104 40 14
105 40 14
106 40 14
107 40 14
108 22 -5
109 22 -5
110 22 -5
111 -2 -43
112 -2 -43
113 -2 -43
114 49 30
115 49 30
116 49 30
117 49 30
118 -34 1
119 -34 1
120 -34 1
121 -39 -18
122 -39 -18
123 -39 -18
124 -39 -18
125 -48 7
126 -48 7
127 -48 7
128 -48 7
129 -32 23
130 -32 23
131 -32 23
132 -32 23
133 -32 23
134 -18 -34
135 -18 -34
136 -18 -34
137 -18 -34
138 -18 -34
139 15 25
140 15 25
141 15 25
142 15 25
143 9 -19
144 9 -19
145 9 -19
146 9 -19
147 9 -19
148 -9 -45
149 -9 -45
150 -9 -45
151 -9 -45
152 -34 -34
153 -34 -34
154 -34 -34
155 -34 -34
156 -34 -34
157 37 30
158 37 30
159 37 30
160 37 30
161 -11 -15
162 -11 -15
163 -11 -15
164 -7 39
165 -7 39
166 -7 39
167 -7 39
168 44 -12
169 44 -12
170 46 12
171 46 12
172 46 12
173 46 12
174 46 12
175 46 12
176 46 12
177 28 0
178 28 0
179 28 0
180 28 0
181 42 37
182 42 37
183 42 37
184 42 37
185 42 37
186 42 37
187 33 -4
188 33 -4
189 -47 13
190 -47 13
191 -47 13
192 -47 13
193 -47 13
194 -47 13
195 19 -26
196 19 -26
197 19 -26
198 19 -26
199 19 -26
200 -27 32
201 -27 32
202 -27 32
203 -27 32
204 21 33
205 21 33
206 21 33
207 0 2
208 0 2
209 0 2
210 0 2
211 0 2
DEMAND_SECTION
1 0
2 16
3 8
4 2
5 2
6 1
7 32
8 8
9 2
10 2
11 2
12 32
13 32
14 8
15 2
16 2
17 2
18 32
19 2
20 2
21 2
22 1
23 32
24 32
25 8
26 2
27 2
28 1
29 32
30 32
31 8
32 1
33 32
34 16
35 8
36 2
37 32
38 2
39 2
40 1
41 32
42 8
43 2
44 2
45 1
46 32
47 16
48 2
49 2
50 2
51 1
52 32
53 32
54 8
55 2
56 2
57 1
58 32
59 2
60 2
61 2
62 32
63 16
64 8
65 1
66 16
67 8
68 32
69 2
70 32
71 8
72 2
73 2
74 2
75 1
76 32
77 2
78 2
79 1
80 32
81 2
82 2
83 16
84 2
85 2
86 32
87 32
88 2
89 2
90 32
91 8
92 2
93 32
94 2
95 16
96 2
97 2
98 32
99 8
100 2
101 2
102 2
103 1
104 16
105 8
106 2
107 1
108 32
109 2
110 1
111 32
112 16
113 2
114 32
115 16
116 2
117 2
118 32
119 16
120 1
121 32
122 2
123 2
124 2
125 32
126 16
127 8
128 1
129 32
130 8
131 2
132 2
133 2
134 32
135 16
136 2
137 2
138 2
139 32
140 16
141 2
142 2
143 16
144 8
145 2
146 2
147 1
148 32
149 16
150 2
151 1
152 16
153 8
154 2
155 2
156 2
157 16
158 2
159 2
160 2
161 32
162 8
163 2
164 32
165 16
166 2
167 2
168 32
169 8
170 32
171 16
172 8
173 2
174 2
175 2
176 1
177 32
178 16
179 2
180 1
181 32
182 8
183 2
184 2
185 2
186 1
187 32
188 8
189 32
190 32
191 2
192 2
193 2
194 1
195 32
196 16
197 2
198 2
199 1
200 32
201 32
202 2
203 2
204 16
205 8
206 2
207 32
208 8
209 2
210 2
211 2
DEPOT_SECTION
1
-1
EOF