SDVRP instances/custom_instances/p01_23_split0.sol
210 -7 6 10 9 8 127 126 125 124 45 46 49 48 50 47 -27 25 22 24 23 26 111 112 110 61 -30 31 28 29 122 121 120 123 117 119 118 -35 34 33 32 183 185 182 181 184 180 204 203 205 -38 36 37 178 176 177 179 186 187 107 109 -39 104 106 105 103 173 172 170 175 169 174 171 66 65 167 168 108 -41 44 42 40 43 200 199 201 202 128 132 130 129 131 -62 134 133 135 137 136 68 67 147 149 148 150 -63 64 161 162 160 154 155 152 153 151 5 2 4 1 3 98 102 101 100 99 97 -76 78 77 84 82 83 60 59 58 94 96 95 57 92 93 89 91 90 -81 80 79 72 71 74 73 69 70 193 192 189 188 191 190 -115 114 116 113 53 52 55 54 56 51 157 158 159 156 -138 141 139 140 16 11 12 15 14 13 207 210 208 209 -144 145 143 146 142 20 18 19 21 17 75 196 194 198 197 195 -165 166 164 163 86 87 85 88 206 0 





OBJ=
1567.568
BEST_KNOWN=
0.000